proyfinal/src/viki/013/experimentInOfficeAgust.take6.output/3b68e331-7a38-4cf0-8ffa-be79aee1130c.als.out
Reading from standard input... Use '--help' for help.
============================[ Problem Statistics ]=============================
|                                                                             |
|  Number of variables:         87638                                         |
|  Number of clauses:          161767                                         |
|  Parse time:                   0.03 s                                       |
|                                                                             |
============================[ Search Statistics ]==============================
| Conflicts |          ORIGINAL         |          LEARNT          | Progress |
|           |    Vars  Clauses Literals |    Limit  Clauses Lit/Cl |          |
===============================================================================
|       100 |   64001   110907   277218 |    40665      100     11 | 26.971 % |
|       250 |   64001   110907   277218 |    44732      250     25 | 26.971 % |
|       475 |   64001   110907   277218 |    49205      475     87 | 26.971 % |
|       812 |   64001   110907   277218 |    54126      812     75 | 26.971 % |
|      1318 |   53749    80667   202670 |    59538     1274     66 | 38.669 % |
|      2077 |   53355    79015   198715 |    65492     1977     60 | 39.119 % |
|      3216 |   53305    78809   198242 |    72042     3106     69 | 39.176 % |
|      4924 |   53256    78579   197704 |    79246     4803     65 | 39.232 % |
|      7486 |   52901    77346   194686 |    87170     7350     74 | 39.637 % |
|     11330 |   52322    75218   189539 |    95888    10194     71 | 40.298 % |
|     17096 |   51917    73707   185863 |   105476    14319     63 | 40.760 % |
===============================================================================
restarts              : 78
conflicts             : 22263          (7479 /sec)
decisions             : 73069          (0.00 % random) (24547 /sec)
propagations          : 30297220       (10177993 /sec)
conflict literals     : 1414698        (43.15 % deleted)
Memory used           : 38.53 MB
CPU time              : 2.97674 s

UNSATISFIABLE
